decision_x1=[0,2];
decision_x2=[0,2];
decision_x3=[0,2];
decision_x4=[0,2];
decision_x5=[0,2];
random_y1=[0,2];
constraint_x2_x1=[
0,0,5.3|
0,1,7.6|
0,2,9.4|
1,0,5.1|
1,1,5.7|
1,2,6.7|
2,0,6.1|
2,1,2.7|
2,2,1.4|
];
constraint_x3_x1=[
0,0,9|
0,1,5.9|
0,2,0.16|
1,0,7.2|
1,1,8.8|
1,2,8.7|
2,0,7.3|
2,1,2.6|
2,2,3.8|
];
constraint_x4_x3=[
0,0,7.7|
0,1,0.029|
0,2,8.6|
1,0,4.3|
1,1,2.6|
1,2,1.5|
2,0,7.9|
2,1,5.5|
2,2,6.9|
];
constraint_x5_x3=[
0,0,1.8|
0,1,6.2|
0,2,1.8|
1,0,7.1|
1,1,1.2|
1,2,6.6|
2,0,2.6|
2,1,9.1|
2,2,5.3|
];
constraint_x5_x4=[
0,0,1|
0,1,2|
0,2,0.71|
1,0,10|
1,1,2.9|
1,2,7.4|
2,0,5.9|
2,1,7.2|
2,2,6.9|
];
constraint_x1_y1=[
0,0,2.7|
0,1,0.71|
0,2,7.7|
1,0,8.7|
1,1,3.4|
1,2,8.5|
2,0,4.7|
2,1,8.1|
2,2,4.4|
];
initial_distribution_y1=[0.48,0.37,0.15];
transition_y1=[
0.32,0.098,0.58|
0.51,0.19,0.3|
0.45,0.23,0.31|
];
